letting n =  10
letting blocks =  [[1, 8], [1, 9], [2, 2], [3, 2], [4, 1], [4, 6], [4, 10], [5, 3], [6, 4], [6, 5], [6, 6], [6, 9], [7, 5], [7, 7], [8, 6], [8, 8], [9, 1], [9, 5], [9, 7], [9, 8], [9, 9], [10, 7]]
